\ENCODING=ISO-8859-1
\Problem name: ilog.cplex

Minimize
 obj1: 97325 x1 + 93472 x2 + 101628 x3 + 95046 x4 + 109673 x5 + 99352 x6
       + 105998 x7 + 100377 x8 + 94540 x9 + 107228 x10 + 96595 x11 + 92391 x12
       + 104453 x13 + 109314 x14 + 94518 x15 + 102538 x16 + 99019 x17
       + 90517 x18 + 105765 x19 + 92618 x20 + 96406 x21 + 90195 x22
       + 106408 x23 + 107614 x24 + 105560 x25 + 105964 x26 + 102973 x27
       + 101023 x28 + 102110 x29 + 101801 x30 + 101539 x31 + 108367 x32
       + 98401 x33 + 102264 x34 + 101869 x35 + 91977 x36 + 101256 x37
       + 94801 x38 + 101346 x39 + 98082 x40 + 109854 x41 + 102942 x42
       + 107592 x43 + 95891 x44 + 100452 x45 + 94575 x46 + 98334 x47
       + 107558 x48 + 94775 x49 + 91567 x50 + 92412 x51 + 107812 x52
       + 94468 x53 + 109674 x54 + 106801 x55 + 92502 x56 + 105327 x57
       + 100970 x58 + 91074 x59 + 106440 x60 + 102641 x61 + 95496 x62
       + 99059 x63 + 96525 x64 + 97432 x65 + 97099 x66 + 104455 x67
       + 107739 x68 + 108907 x69 + 109801 x70 + 108807 x71 + 101746 x72
       + 99786 x73 + 105586 x74 + 94145 x75 + 90267 x76 + 109997 x77
       + 95660 x78 + 104983 x79 + 98370 x80 + 99164 x81 + 94486 x82 + 99542 x83
       + 95562 x84 + 104652 x85 + 103869 x86 + 95216 x87 + 107812 x88
       + 96961 x89 + 95344 x90 + 98354 x91 + 104311 x92 + 100976 x93
       + 106625 x94 + 97966 x95 + 105596 x96 + 108955 x97 + 101034 x98
       + 93175 x99 + 98141 x100 + 99127 x101 + 107583 x102 + 94971 x103
       + 104591 x104 + 92372 x105 + 103796 x106 + 94334 x107 + 108509 x108
       + 108709 x109 + 103359 x110 + 100761 x111 + 107865 x112 + 105180 x113
       + 106336 x114 + 107969 x115 + 92431 x116 + 107182 x117 + 100967 x118
       + 96814 x119 + 106838 x120 + 93252 x121 + 90634 x122 + 100620 x123
       + 102924 x124 + 105466 x125 + 91645 x126 + 92619 x127 + 106902 x128
       + 109659 x129 + 93239 x130 + 98358 x131 + 103370 x132 + 96140 x133
       + 101538 x134 + 91038 x135 + 105899 x136 + 101140 x137 + 96715 x138
       + 107959 x139 + 90458 x140 + 98001 x141 + 108805 x142 + 93518 x143
       + 108751 x144 + 103096 x145 + 96128 x146 + 106574 x147 + 93013 x148
       + 93396 x149 + 90899 x150 + 105720 x151 + 90109 x152 + 109796 x153
       + 93368 x154 + 93556 x155 + 102405 x156 + 103147 x157 + 103175 x158
       + 104183 x159 + 92992 x160 + 108403 x161 + 94606 x162 + 96915 x163
       + 93683 x164 + 106368 x165 + 91036 x166 + 93587 x167 + 95626 x168
       + 92245 x169 + 93093 x170 + 106879 x171 + 104393 x172 + 95503 x173
       + 104947 x174 + 92706 x175 + 104139 x176 + 106556 x177 + 103593 x178
       + 100986 x179 + 98662 x180 + 101179 x181 + 104883 x182 + 99807 x183
       + 90178 x184 + 109130 x185 + 95510 x186 + 103813 x187 + 102882 x188
       + 105548 x189 + 99353 x190 + 91102 x191 + 100350 x192 + 94294 x193
       + 95704 x194 + 101745 x195 + 91333 x196 + 102909 x197 + 93021 x198
       + 99876 x199 + 108797 x200 + 93860 x201 + 98450 x202 + 92990 x203
       + 98298 x204 + 92669 x205 + 107489 x206 + 105883 x207 + 100017 x208
       + 109667 x209 + 100998 x210 + 96649 x211 + 93333 x212 + 101094 x213
       + 104000 x214 + 108859 x215 + 90327 x216 + 104767 x217 + 93526 x218
       + 91443 x219 + 97746 x220 + 95750 x221 + 101221 x222 + 105758 x223
       + 95743 x224 + 98243 x225 + 100521 x226 + 97947 x227 + 106089 x228
       + 101337 x229 + 97897 x230 + 103945 x231 + 102573 x232 + 98332 x233
       + 103016 x234 + 94319 x235 + 91968 x236 + 101999 x237 + 93606 x238
       + 96663 x239 + 105179 x240 + 105122 x241 + 100195 x242 + 105795 x243
       + 92102 x244 + 100364 x245 + 109645 x246 + 91508 x247 + 101580 x248
       + 91729 x249 + 107191 x250 + 106313 x251 + 92403 x252 + 92831 x253
       + 104188 x254 + 103616 x255 + 98594 x256 + 94885 x257 + 105272 x258
       + 105643 x259 + 103923 x260 + 91177 x261 + 97668 x262 + 95210 x263
       + 94838 x264 + 97216 x265 + 106737 x266 + 98023 x267 + 105091 x268
       + 98857 x269 + 92380 x270 + 93048 x271 + 102271 x272 + 92574 x273
       + 99761 x274 + 105687 x275 + 103178 x276 + 109598 x277 + 97454 x278
       + 101342 x279 + 92394 x280 + 98765 x281 + 96203 x282 + 105395 x283
       + 96312 x284 + 101688 x285 + 102357 x286 + 109709 x287 + 93576 x288
       + 108273 x289 + 101435 x290 + 105483 x291 + 102070 x292 + 90611 x293
       + 109319 x294 + 107608 x295 + 92486 x296 + 98919 x297 + 91276 x298
       + 106621 x299 + 98970 x300 + 108477 x301 + 91424 x302 + 106097 x303
       + 104485 x304 + 92190 x305 + 91709 x306 + 94961 x307 + 91733 x308
       + 94728 x309 + 105812 x310 + 97194 x311 + 97552 x312 + 99851 x313
       + 95395 x314 + 105512 x315 + 105922 x316 + 104993 x317 + 93625 x318
       + 105483 x319 + 108213 x320 + 101179 x321 + 93841 x322 + 90539 x323
       + 101098 x324 + 109764 x325 + 107882 x326 + 97621 x327 + 90408 x328
       + 92887 x329 + 91703 x330 + 95861 x331 + 108754 x332 + 90698 x333
       + 97757 x334 + 109612 x335 + 101997 x336 + 105093 x337 + 91178 x338
       + 106707 x339 + 92436 x340 + 107117 x341 + 99910 x342 + 92979 x343
       + 105057 x344 + 93118 x345 + 97722 x346 + 104899 x347 + 107275 x348
       + 93422 x349 + 103437 x350 + 103595 x351 + 102307 x352 + 106469 x353
       + 99718 x354 + 105589 x355 + 91617 x356 + 91246 x357 + 90389 x358
       + 98229 x359 + 102883 x360 + 106475 x361 + 105163 x362 + 98804 x363
       + 108898 x364 + 95646 x365 + 108092 x366 + 94708 x367 + 104722 x368
       + 103501 x369 + 95806 x370 + 100224 x371 + 90110 x372 + 93228 x373
       + 109588 x374 + 95799 x375 + 91208 x376 + 107169 x377 + 109191 x378
       + 108627 x379 + 99053 x380 + 95037 x381 + 92477 x382 + 106904 x383
       + 97942 x384 + 101884 x385 + 106105 x386 + 102752 x387 + 93832 x388
       + 102403 x389 + 96990 x390 + 106733 x391 + 92957 x392 + 99725 x393
       + 100363 x394 + 108746 x395 + 99822 x396 + 104079 x397 + 97035 x398
       + 107651 x399 + 103229 x400 + 109506 x401 + 99774 x402 + 95101 x403
       + 99212 x404 + 95296 x405 + 106762 x406 + 97796 x407 + 100533 x408
       + 92874 x409 + 108642 x410 + 96836 x411 + 103822 x412 + 98583 x413
       + 94959 x414 + 92800 x415 + 107497 x416 + 98147 x417 + 95630 x418
       + 90865 x419 + 96277 x420 + 91403 x421 + 107583 x422 + 95813 x423
       + 109510 x424 + 109596 x425 + 95786 x426 + 91805 x427 + 95439 x428
       + 98349 x429 + 98798 x430 + 100751 x431 + 104118 x432 + 100309 x433
       + 102268 x434 + 91807 x435 + 95595 x436 + 105324 x437 + 106023 x438
       + 95407 x439 + 95731 x440 + 95137 x441 + 101146 x442 + 107778 x443
       + 97470 x444 + 92777 x445 + 91912 x446 + 105745 x447 + 94751 x448
       + 96352 x449 + 109448 x450 + 94330 x451 + 97325 x452 + 105277 x453
       + 105603 x454 + 105826 x455 + 96575 x456 + 95869 x457 + 102709 x458
       + 95721 x459 + 90001 x460 + 92814 x461 + 107730 x462 + 98234 x463
       + 105135 x464 + 93163 x465 + 97787 x466 + 92202 x467 + 92466 x468
       + 90345 x469 + 108093 x470 + 106672 x471 + 101303 x472 + 97079 x473
       + 103063 x474 + 104804 x475 + 92569 x476 + 98145 x477 + 106689 x478
       + 104529 x479 + 98117 x480 + 107472 x481 + 90549 x482 + 93810 x483
       + 108280 x484 + 109772 x485 + 90803 x486 + 98858 x487 + 99926 x488
       + 101196 x489 + 105666 x490 + 109902 x491 + 109515 x492 + 106341 x493
       + 92600 x494 + 97999 x495 + 91381 x496 + 95745 x497 + 93634 x498
       + 90899 x499 + 104451 x500 + 91170 x501 + 107161 x502 + 97918 x503
       + 106804 x504 + 95265 x505 + 106002 x506 + 109726 x507 + 104737 x508
       + 102900 x509 + 109263 x510 + 100281 x511 + 91672 x512 + 107674 x513
       + 93813 x514 + 109681 x515 + 98391 x516 + 109080 x517 + 90155 x518
       + 103921 x519 + 92784 x520 + 93235 x521 + 106971 x522 + 90396 x523
       + 94691 x524 + 103310 x525 + 108847 x526 + 96412 x527 + 109382 x528
       + 94511 x529 + 92458 x530 + 92080 x531 + 91853 x532 + 102875 x533
       + 107909 x534 + 98659 x535 + 93339 x536 + 107169 x537 + 94004 x538
       + 108748 x539 + 91317 x540 + 104755 x541 + 96070 x542 + 100749 x543
       + 106136 x544 + 107480 x545 + 95433 x546 + 107366 x547 + 91880 x548
       + 94278 x549 + 106108 x550 + 97521 x551 + 105014 x552 + 106692 x553
       + 101049 x554 + 92860 x555 + 93764 x556 + 108487 x557 + 102256 x558
       + 94271 x559 + 95586 x560 + 94352 x561 + 97191 x562 + 103443 x563
       + 108706 x564 + 99657 x565 + 98257 x566 + 97258 x567 + 93696 x568
       + 93931 x569 + 97938 x570 + 90365 x571 + 92570 x572 + 106242 x573
       + 98426 x574 + 109572 x575 + 94529 x576 + 106741 x577 + 96517 x578
       + 92632 x579 + 104626 x580 + 95396 x581 + 102011 x582 + 93546 x583
       + 104519 x584 + 106292 x585 + 101050 x586 + 106657 x587 + 92884 x588
       + 103867 x589 + 104567 x590 + 92667 x591 + 97168 x592 + 106058 x593
       + 106418 x594 + 101061 x595 + 98070 x596 + 98590 x597 + 95799 x598
       + 95541 x599 + 117551 x600 + 38587 x601 + 39147 x602 + 39603 x603
       + 39332 x604 + 38600 x605 + 40272 x606 + 43665 x607 + 39837 x608
       + 43609 x609 + 42059 x610 + 40745 x611 + 36965 x612 + 36738 x613
       + 43986 x614 + 40461 x615 + 43776 x616 + 43759 x617 + 36689 x618
       + 42027 x619 + 43360 x620 + 40765 x621 + 43505 x622 + 43676 x623
       + 40486 x624 + 36377 x625 + 41853 x626 + 38162 x627 + 36053 x628
       + 37055 x629 + 39962 x630 + 41216 x631 + 39632 x632 + 39905 x633
       + 37745 x634 + 43048 x635 + 37056 x636 + 41929 x637 + 40570 x638
       + 36917 x639 + 38354 x640 + 36020 x641 + 41491 x642 + 43490 x643
       + 42492 x644 + 42029 x645 + 36981 x646 + 43155 x647 + 41252 x648
       + 36090 x649 + 37459 x650 + 38653 x651 + 37204 x652 + 40940 x653
       + 36947 x654 + 41340 x655 + 38138 x656 + 40289 x657 + 39911 x658
       + 38068 x659 + 40568 x660
Subject To
 c1:   x1 - x13 - x16 - x18 - x20 + x22 - x25 - x31 + x32 + x47 - x52 - x60
        = 0
 c2:   x61 - x73 - x76 - x78 - x80 + x82 - x85 - x91 + x92 + x107 - x112 - x120
        = 0
 c3:   x121 - x133 - x136 - x138 - x140 + x142 - x145 - x151 + x152 + x167
       - x172 - x180  = 0
 c4:   x181 - x193 - x196 - x198 - x200 + x202 - x205 - x211 + x212 + x227
       - x232 - x240  = 0
 c5:   x241 - x253 - x256 - x258 - x260 + x262 - x265 - x271 + x272 + x287
       - x292 - x300  = 0
 c6:   x301 - x313 - x316 - x318 - x320 + x322 - x325 - x331 + x332 + x347
       - x352 - x360  = 0
 c7:   x361 - x373 - x376 - x378 - x380 + x382 - x385 - x391 + x392 + x407
       - x412 - x420  = 0
 c8:   x421 - x433 - x436 - x438 - x440 + x442 - x445 - x451 + x452 + x467
       - x472 - x480  = 0
 c9:   x481 - x493 - x496 - x498 - x500 + x502 - x505 - x511 + x512 + x527
       - x532 - x540  = 0
 c10:  x541 - x553 - x556 - x558 - x560 + x562 - x565 - x571 + x572 + x587
       - x592 - x600  = 0
 c11:  x7 + x10 - x12 + x13 - x21 - x28 + x38 + x39 - x48 - x56  = 0
 c12:  x67 + x70 - x72 + x73 - x81 - x88 + x98 + x99 - x108 - x116  = -1
 c13:  x127 + x130 - x132 + x133 - x141 - x148 + x158 + x159 - x168 - x176  = 1
 c14:  x187 + x190 - x192 + x193 - x201 - x208 + x218 + x219 - x228 - x236  = 0
 c15:  x247 + x250 - x252 + x253 - x261 - x268 + x278 + x279 - x288 - x296  = 0
 c16:  x307 + x310 - x312 + x313 - x321 - x328 + x338 + x339 - x348 - x356  = 1
 c17:  x367 + x370 - x372 + x373 - x381 - x388 + x398 + x399 - x408 - x416  = 0
 c18:  x427 + x430 - x432 + x433 - x441 - x448 + x458 + x459 - x468 - x476  = 1
 c19:  x487 + x490 - x492 + x493 - x501 - x508 + x518 + x519 - x528 - x536  = 0
 c20:  x547 + x550 - x552 + x553 - x561 - x568 + x578 + x579 - x588 - x596  = 0
 c21:  - x4 - x5 + x18 + x21 + x26 + x41 - x42 - x43 + x49 - x50 - x55  = -1
 c22:  - x64 - x65 + x78 + x81 + x86 + x101 - x102 - x103 + x109 - x110 - x115
        = 1
 c23:  - x124 - x125 + x138 + x141 + x146 + x161 - x162 - x163 + x169 - x170
       - x175  = 0
 c24:  - x184 - x185 + x198 + x201 + x206 + x221 - x222 - x223 + x229 - x230
       - x235  = 0
 c25:  - x244 - x245 + x258 + x261 + x266 + x281 - x282 - x283 + x289 - x290
       - x295  = -1
 c26:  - x304 - x305 + x318 + x321 + x326 + x341 - x342 - x343 + x349 - x350
       - x355  = 0
 c27:  - x364 - x365 + x378 + x381 + x386 + x401 - x402 - x403 + x409 - x410
       - x415  = 0
 c28:  - x424 - x425 + x438 + x441 + x446 + x461 - x462 - x463 + x469 - x470
       - x475  = 0
 c29:  - x484 - x485 + x498 + x501 + x506 + x521 - x522 - x523 + x529 - x530
       - x535  = 0
 c30:  - x544 - x545 + x558 + x561 + x566 + x581 - x582 - x583 + x589 - x590
       - x595  = -1
 c31:  x15 - x17 - x23 + x28 + x31 + x36 + x43 - x44 - x49 - x59  = 0
 c32:  x75 - x77 - x83 + x88 + x91 + x96 + x103 - x104 - x109 - x119  = 0
 c33:  x135 - x137 - x143 + x148 + x151 + x156 + x163 - x164 - x169 - x179  = 0
 c34:  x195 - x197 - x203 + x208 + x211 + x216 + x223 - x224 - x229 - x239
        = -1
 c35:  x255 - x257 - x263 + x268 + x271 + x276 + x283 - x284 - x289 - x299  = 1
 c36:  x315 - x317 - x323 + x328 + x331 + x336 + x343 - x344 - x349 - x359  = 0
 c37:  x375 - x377 - x383 + x388 + x391 + x396 + x403 - x404 - x409 - x419  = 0
 c38:  x435 - x437 - x443 + x448 + x451 + x456 + x463 - x464 - x469 - x479  = 0
 c39:  x495 - x497 - x503 + x508 + x511 + x516 + x523 - x524 - x529 - x539  = 0
 c40:  x555 - x557 - x563 + x568 + x571 + x576 + x583 - x584 - x589 - x599  = 0
 c41:  x2 + x4 - x7 - x8 + x12 - x14 - x22 - x26 - x27 - x36 + x40 + x45 - x46
       + x52 + x53  = 0
 c42:  x62 + x64 - x67 - x68 + x72 - x74 - x82 - x86 - x87 - x96 + x100 + x105
       - x106 + x112 + x113  = 0
 c43:  x122 + x124 - x127 - x128 + x132 - x134 - x142 - x146 - x147 - x156
       + x160 + x165 - x166 + x172 + x173  = -1
 c44:  x182 + x184 - x187 - x188 + x192 - x194 - x202 - x206 - x207 - x216
       + x220 + x225 - x226 + x232 + x233  = 0
 c45:  x242 + x244 - x247 - x248 + x252 - x254 - x262 - x266 - x267 - x276
       + x280 + x285 - x286 + x292 + x293  = 0
 c46:  x302 + x304 - x307 - x308 + x312 - x314 - x322 - x326 - x327 - x336
       + x340 + x345 - x346 + x352 + x353  = 0
 c47:  x362 + x364 - x367 - x368 + x372 - x374 - x382 - x386 - x387 - x396
       + x400 + x405 - x406 + x412 + x413  = 0
 c48:  x422 + x424 - x427 - x428 + x432 - x434 - x442 - x446 - x447 - x456
       + x460 + x465 - x466 + x472 + x473  = 0
 c49:  x482 + x484 - x487 - x488 + x492 - x494 - x502 - x506 - x507 - x516
       + x520 + x525 - x526 + x532 + x533  = 0
 c50:  x542 + x544 - x547 - x548 + x552 - x554 - x562 - x566 - x567 - x576
       + x580 + x585 - x586 + x592 + x593  = 1
 c51:  x5 + x8 - x11 + x16 + x19 + x23 + x24 - x32 + x35 - x40 - x54 + x56
       + x58  = 1
 c52:  x65 + x68 - x71 + x76 + x79 + x83 + x84 - x92 + x95 - x100 - x114 + x116
       + x118  = 0
 c53:  x125 + x128 - x131 + x136 + x139 + x143 + x144 - x152 + x155 - x160
       - x174 + x176 + x178  = 0
 c54:  x185 + x188 - x191 + x196 + x199 + x203 + x204 - x212 + x215 - x220
       - x234 + x236 + x238  = 0
 c55:  x245 + x248 - x251 + x256 + x259 + x263 + x264 - x272 + x275 - x280
       - x294 + x296 + x298  = 0
 c56:  x305 + x308 - x311 + x316 + x319 + x323 + x324 - x332 + x335 - x340
       - x354 + x356 + x358  = -1
 c57:  x365 + x368 - x371 + x376 + x379 + x383 + x384 - x392 + x395 - x400
       - x414 + x416 + x418  = -1
 c58:  x425 + x428 - x431 + x436 + x439 + x443 + x444 - x452 + x455 - x460
       - x474 + x476 + x478  = -1
 c59:  x485 + x488 - x491 + x496 + x499 + x503 + x504 - x512 + x515 - x520
       - x534 + x536 + x538  = 0
 c60:  x545 + x548 - x551 + x556 + x559 + x563 + x564 - x572 + x575 - x580
       - x594 + x596 + x598  = 0
 c61:  x6 + x9 + x20 + x27 - x29 - x35 - x39 + x42 + x48 + x51 - x53 - x57  = 0
 c62:  x66 + x69 + x80 + x87 - x89 - x95 - x99 + x102 + x108 + x111 - x113
       - x117  = 0
 c63:  x126 + x129 + x140 + x147 - x149 - x155 - x159 + x162 + x168 + x171
       - x173 - x177  = 0
 c64:  x186 + x189 + x200 + x207 - x209 - x215 - x219 + x222 + x228 + x231
       - x233 - x237  = 0
 c65:  x246 + x249 + x260 + x267 - x269 - x275 - x279 + x282 + x288 + x291
       - x293 - x297  = 0
 c66:  x306 + x309 + x320 + x327 - x329 - x335 - x339 + x342 + x348 + x351
       - x353 - x357  = 0
 c67:  x366 + x369 + x380 + x387 - x389 - x395 - x399 + x402 + x408 + x411
       - x413 - x417  = 0
 c68:  x426 + x429 + x440 + x447 - x449 - x455 - x459 + x462 + x468 + x471
       - x473 - x477  = 0
 c69:  x486 + x489 + x500 + x507 - x509 - x515 - x519 + x522 + x528 + x531
       - x533 - x537  = 0
 c70:  x546 + x549 + x560 + x567 - x569 - x575 - x579 + x582 + x588 + x591
       - x593 - x597  = 0
 c71:  - x3 - x10 + x14 - x15 - x19 - x33 + x34 - x41 + x44 - x45 + x50 - x51
        = 0
 c72:  - x63 - x70 + x74 - x75 - x79 - x93 + x94 - x101 + x104 - x105 + x110
       - x111  = 0
 c73:  - x123 - x130 + x134 - x135 - x139 - x153 + x154 - x161 + x164 - x165
       + x170 - x171  = 0
 c74:  - x183 - x190 + x194 - x195 - x199 - x213 + x214 - x221 + x224 - x225
       + x230 - x231  = 0
 c75:  - x243 - x250 + x254 - x255 - x259 - x273 + x274 - x281 + x284 - x285
       + x290 - x291  = 0
 c76:  - x303 - x310 + x314 - x315 - x319 - x333 + x334 - x341 + x344 - x345
       + x350 - x351  = 0
 c77:  - x363 - x370 + x374 - x375 - x379 - x393 + x394 - x401 + x404 - x405
       + x410 - x411  = 0
 c78:  - x423 - x430 + x434 - x435 - x439 - x453 + x454 - x461 + x464 - x465
       + x470 - x471  = 0
 c79:  - x483 - x490 + x494 - x495 - x499 - x513 + x514 - x521 + x524 - x525
       + x530 - x531  = -1
 c80:  - x543 - x550 + x554 - x555 - x559 - x573 + x574 - x581 + x584 - x585
       + x590 - x591  = 0
 c81:  - x2 - x9 + x11 - x24 + x29 + x30 + x33 - x37 - x38 - x47 + x59 + x60
        = 0
 c82:  - x62 - x69 + x71 - x84 + x89 + x90 + x93 - x97 - x98 - x107 + x119
       + x120  = 0
 c83:  - x122 - x129 + x131 - x144 + x149 + x150 + x153 - x157 - x158 - x167
       + x179 + x180  = 0
 c84:  - x182 - x189 + x191 - x204 + x209 + x210 + x213 - x217 - x218 - x227
       + x239 + x240  = 1
 c85:  - x242 - x249 + x251 - x264 + x269 + x270 + x273 - x277 - x278 - x287
       + x299 + x300  = 0
 c86:  - x302 - x309 + x311 - x324 + x329 + x330 + x333 - x337 - x338 - x347
       + x359 + x360  = 0
 c87:  - x362 - x369 + x371 - x384 + x389 + x390 + x393 - x397 - x398 - x407
       + x419 + x420  = 1
 c88:  - x422 - x429 + x431 - x444 + x449 + x450 + x453 - x457 - x458 - x467
       + x479 + x480  = 0
 c89:  - x482 - x489 + x491 - x504 + x509 + x510 + x513 - x517 - x518 - x527
       + x539 + x540  = 0
 c90:  - x542 - x549 + x551 - x564 + x569 + x570 + x573 - x577 - x578 - x587
       + x599 + x600  = 0
 c91:  - x1 + x3 - x6 + x17 + x25 - x30 - x34 + x37 + x46 + x54 + x55 + x57
       - x58  = 0
 c92:  - x61 + x63 - x66 + x77 + x85 - x90 - x94 + x97 + x106 + x114 + x115
       + x117 - x118  = 0
 c93:  - x121 + x123 - x126 + x137 + x145 - x150 - x154 + x157 + x166 + x174
       + x175 + x177 - x178  = 0
 c94:  - x181 + x183 - x186 + x197 + x205 - x210 - x214 + x217 + x226 + x234
       + x235 + x237 - x238  = 0
 c95:  - x241 + x243 - x246 + x257 + x265 - x270 - x274 + x277 + x286 + x294
       + x295 + x297 - x298  = 0
 c96:  - x301 + x303 - x306 + x317 + x325 - x330 - x334 + x337 + x346 + x354
       + x355 + x357 - x358  = 0
 c97:  - x361 + x363 - x366 + x377 + x385 - x390 - x394 + x397 + x406 + x414
       + x415 + x417 - x418  = 0
 c98:  - x421 + x423 - x426 + x437 + x445 - x450 - x454 + x457 + x466 + x474
       + x475 + x477 - x478  = 0
 c99:  - x481 + x483 - x486 + x497 + x505 - x510 - x514 + x517 + x526 + x534
       + x535 + x537 - x538  = 1
 c100: - x541 + x543 - x546 + x557 + x565 - x570 - x574 + x577 + x586 + x594
       + x595 + x597 - x598  = 0
 c101: 4 x1 + 4 x61 + 4 x121 + 4 x181 + 4 x241 + 4 x301 + 4 x361 + 4 x421
       + 4 x481 + 4 x541 - 5 x601 <= 0
 c102: 4 x2 + 4 x62 + 4 x122 + 4 x182 + 4 x242 + 4 x302 + 4 x362 + 4 x422
       + 4 x482 + 4 x542 - 5 x602 <= 0
 c103: 4 x3 + 4 x63 + 4 x123 + 4 x183 + 4 x243 + 4 x303 + 4 x363 + 4 x423
       + 4 x483 + 4 x543 - 5 x603 <= 0
 c104: 4 x4 + 4 x64 + 4 x124 + 4 x184 + 4 x244 + 4 x304 + 4 x364 + 4 x424
       + 4 x484 + 4 x544 - 5 x604 <= 0
 c105: 4 x5 + 4 x65 + 4 x125 + 4 x185 + 4 x245 + 4 x305 + 4 x365 + 4 x425
       + 4 x485 + 4 x545 - 5 x605 <= 0
 c106: 4 x6 + 4 x66 + 4 x126 + 4 x186 + 4 x246 + 4 x306 + 4 x366 + 4 x426
       + 4 x486 + 4 x546 - 5 x606 <= 0
 c107: 4 x7 + 4 x67 + 4 x127 + 4 x187 + 4 x247 + 4 x307 + 4 x367 + 4 x427
       + 4 x487 + 4 x547 - 5 x607 <= 0
 c108: 4 x8 + 4 x68 + 4 x128 + 4 x188 + 4 x248 + 4 x308 + 4 x368 + 4 x428
       + 4 x488 + 4 x548 - 5 x608 <= 0
 c109: 4 x9 + 4 x69 + 4 x129 + 4 x189 + 4 x249 + 4 x309 + 4 x369 + 4 x429
       + 4 x489 + 4 x549 - 5 x609 <= 0
 c110: 4 x10 + 4 x70 + 4 x130 + 4 x190 + 4 x250 + 4 x310 + 4 x370 + 4 x430
       + 4 x490 + 4 x550 - 5 x610 <= 0
 c111: 4 x11 + 4 x71 + 4 x131 + 4 x191 + 4 x251 + 4 x311 + 4 x371 + 4 x431
       + 4 x491 + 4 x551 - 5 x611 <= 0
 c112: 4 x12 + 4 x72 + 4 x132 + 4 x192 + 4 x252 + 4 x312 + 4 x372 + 4 x432
       + 4 x492 + 4 x552 - 5 x612 <= 0
 c113: 4 x13 + 4 x73 + 4 x133 + 4 x193 + 4 x253 + 4 x313 + 4 x373 + 4 x433
       + 4 x493 + 4 x553 - 5 x613 <= 0
 c114: 4 x14 + 4 x74 + 4 x134 + 4 x194 + 4 x254 + 4 x314 + 4 x374 + 4 x434
       + 4 x494 + 4 x554 - 5 x614 <= 0
 c115: 4 x15 + 4 x75 + 4 x135 + 4 x195 + 4 x255 + 4 x315 + 4 x375 + 4 x435
       + 4 x495 + 4 x555 - 5 x615 <= 0
 c116: 4 x16 + 4 x76 + 4 x136 + 4 x196 + 4 x256 + 4 x316 + 4 x376 + 4 x436
       + 4 x496 + 4 x556 - 5 x616 <= 0
 c117: 4 x17 + 4 x77 + 4 x137 + 4 x197 + 4 x257 + 4 x317 + 4 x377 + 4 x437
       + 4 x497 + 4 x557 - 5 x617 <= 0
 c118: 4 x18 + 4 x78 + 4 x138 + 4 x198 + 4 x258 + 4 x318 + 4 x378 + 4 x438
       + 4 x498 + 4 x558 - 5 x618 <= 0
 c119: 4 x19 + 4 x79 + 4 x139 + 4 x199 + 4 x259 + 4 x319 + 4 x379 + 4 x439
       + 4 x499 + 4 x559 - 5 x619 <= 0
 c120: 4 x20 + 4 x80 + 4 x140 + 4 x200 + 4 x260 + 4 x320 + 4 x380 + 4 x440
       + 4 x500 + 4 x560 - 5 x620 <= 0
 c121: 4 x21 + 4 x81 + 4 x141 + 4 x201 + 4 x261 + 4 x321 + 4 x381 + 4 x441
       + 4 x501 + 4 x561 - 5 x621 <= 0
 c122: 4 x22 + 4 x82 + 4 x142 + 4 x202 + 4 x262 + 4 x322 + 4 x382 + 4 x442
       + 4 x502 + 4 x562 - 5 x622 <= 0
 c123: 4 x23 + 4 x83 + 4 x143 + 4 x203 + 4 x263 + 4 x323 + 4 x383 + 4 x443
       + 4 x503 + 4 x563 - 5 x623 <= 0
 c124: 4 x24 + 4 x84 + 4 x144 + 4 x204 + 4 x264 + 4 x324 + 4 x384 + 4 x444
       + 4 x504 + 4 x564 - 5 x624 <= 0
 c125: 4 x25 + 4 x85 + 4 x145 + 4 x205 + 4 x265 + 4 x325 + 4 x385 + 4 x445
       + 4 x505 + 4 x565 - 5 x625 <= 0
 c126: 4 x26 + 4 x86 + 4 x146 + 4 x206 + 4 x266 + 4 x326 + 4 x386 + 4 x446
       + 4 x506 + 4 x566 - 5 x626 <= 0
 c127: 4 x27 + 4 x87 + 4 x147 + 4 x207 + 4 x267 + 4 x327 + 4 x387 + 4 x447
       + 4 x507 + 4 x567 - 5 x627 <= 0
 c128: 4 x28 + 4 x88 + 4 x148 + 4 x208 + 4 x268 + 4 x328 + 4 x388 + 4 x448
       + 4 x508 + 4 x568 - 5 x628 <= 0
 c129: 4 x29 + 4 x89 + 4 x149 + 4 x209 + 4 x269 + 4 x329 + 4 x389 + 4 x449
       + 4 x509 + 4 x569 - 5 x629 <= 0
 c130: 4 x30 + 4 x90 + 4 x150 + 4 x210 + 4 x270 + 4 x330 + 4 x390 + 4 x450
       + 4 x510 + 4 x570 - 5 x630 <= 0
 c131: 4 x31 + 4 x91 + 4 x151 + 4 x211 + 4 x271 + 4 x331 + 4 x391 + 4 x451
       + 4 x511 + 4 x571 - 5 x631 <= 0
 c132: 4 x32 + 4 x92 + 4 x152 + 4 x212 + 4 x272 + 4 x332 + 4 x392 + 4 x452
       + 4 x512 + 4 x572 - 5 x632 <= 0
 c133: 4 x33 + 4 x93 + 4 x153 + 4 x213 + 4 x273 + 4 x333 + 4 x393 + 4 x453
       + 4 x513 + 4 x573 - 5 x633 <= 0
 c134: 4 x34 + 4 x94 + 4 x154 + 4 x214 + 4 x274 + 4 x334 + 4 x394 + 4 x454
       + 4 x514 + 4 x574 - 5 x634 <= 0
 c135: 4 x35 + 4 x95 + 4 x155 + 4 x215 + 4 x275 + 4 x335 + 4 x395 + 4 x455
       + 4 x515 + 4 x575 - 5 x635 <= 0
 c136: 4 x36 + 4 x96 + 4 x156 + 4 x216 + 4 x276 + 4 x336 + 4 x396 + 4 x456
       + 4 x516 + 4 x576 - 5 x636 <= 0
 c137: 4 x37 + 4 x97 + 4 x157 + 4 x217 + 4 x277 + 4 x337 + 4 x397 + 4 x457
       + 4 x517 + 4 x577 - 5 x637 <= 0
 c138: 4 x38 + 4 x98 + 4 x158 + 4 x218 + 4 x278 + 4 x338 + 4 x398 + 4 x458
       + 4 x518 + 4 x578 - 5 x638 <= 0
 c139: 4 x39 + 4 x99 + 4 x159 + 4 x219 + 4 x279 + 4 x339 + 4 x399 + 4 x459
       + 4 x519 + 4 x579 - 5 x639 <= 0
 c140: 4 x40 + 4 x100 + 4 x160 + 4 x220 + 4 x280 + 4 x340 + 4 x400 + 4 x460
       + 4 x520 + 4 x580 - 5 x640 <= 0
 c141: 4 x41 + 4 x101 + 4 x161 + 4 x221 + 4 x281 + 4 x341 + 4 x401 + 4 x461
       + 4 x521 + 4 x581 - 5 x641 <= 0
 c142: 4 x42 + 4 x102 + 4 x162 + 4 x222 + 4 x282 + 4 x342 + 4 x402 + 4 x462
       + 4 x522 + 4 x582 - 5 x642 <= 0
 c143: 4 x43 + 4 x103 + 4 x163 + 4 x223 + 4 x283 + 4 x343 + 4 x403 + 4 x463
       + 4 x523 + 4 x583 - 5 x643 <= 0
 c144: 4 x44 + 4 x104 + 4 x164 + 4 x224 + 4 x284 + 4 x344 + 4 x404 + 4 x464
       + 4 x524 + 4 x584 - 5 x644 <= 0
 c145: 4 x45 + 4 x105 + 4 x165 + 4 x225 + 4 x285 + 4 x345 + 4 x405 + 4 x465
       + 4 x525 + 4 x585 - 5 x645 <= 0
 c146: 4 x46 + 4 x106 + 4 x166 + 4 x226 + 4 x286 + 4 x346 + 4 x406 + 4 x466
       + 4 x526 + 4 x586 - 5 x646 <= 0
 c147: 4 x47 + 4 x107 + 4 x167 + 4 x227 + 4 x287 + 4 x347 + 4 x407 + 4 x467
       + 4 x527 + 4 x587 - 5 x647 <= 0
 c148: 4 x48 + 4 x108 + 4 x168 + 4 x228 + 4 x288 + 4 x348 + 4 x408 + 4 x468
       + 4 x528 + 4 x588 - 5 x648 <= 0
 c149: 4 x49 + 4 x109 + 4 x169 + 4 x229 + 4 x289 + 4 x349 + 4 x409 + 4 x469
       + 4 x529 + 4 x589 - 5 x649 <= 0
 c150: 4 x50 + 4 x110 + 4 x170 + 4 x230 + 4 x290 + 4 x350 + 4 x410 + 4 x470
       + 4 x530 + 4 x590 - 5 x650 <= 0
 c151: 4 x51 + 4 x111 + 4 x171 + 4 x231 + 4 x291 + 4 x351 + 4 x411 + 4 x471
       + 4 x531 + 4 x591 - 5 x651 <= 0
 c152: 4 x52 + 4 x112 + 4 x172 + 4 x232 + 4 x292 + 4 x352 + 4 x412 + 4 x472
       + 4 x532 + 4 x592 - 5 x652 <= 0
 c153: 4 x53 + 4 x113 + 4 x173 + 4 x233 + 4 x293 + 4 x353 + 4 x413 + 4 x473
       + 4 x533 + 4 x593 - 5 x653 <= 0
 c154: 4 x54 + 4 x114 + 4 x174 + 4 x234 + 4 x294 + 4 x354 + 4 x414 + 4 x474
       + 4 x534 + 4 x594 - 5 x654 <= 0
 c155: 4 x55 + 4 x115 + 4 x175 + 4 x235 + 4 x295 + 4 x355 + 4 x415 + 4 x475
       + 4 x535 + 4 x595 - 5 x655 <= 0
 c156: 4 x56 + 4 x116 + 4 x176 + 4 x236 + 4 x296 + 4 x356 + 4 x416 + 4 x476
       + 4 x536 + 4 x596 - 5 x656 <= 0
 c157: 4 x57 + 4 x117 + 4 x177 + 4 x237 + 4 x297 + 4 x357 + 4 x417 + 4 x477
       + 4 x537 + 4 x597 - 5 x657 <= 0
 c158: 4 x58 + 4 x118 + 4 x178 + 4 x238 + 4 x298 + 4 x358 + 4 x418 + 4 x478
       + 4 x538 + 4 x598 - 5 x658 <= 0
 c159: 4 x59 + 4 x119 + 4 x179 + 4 x239 + 4 x299 + 4 x359 + 4 x419 + 4 x479
       + 4 x539 + 4 x599 - 5 x659 <= 0
 c160: 4 x60 + 4 x120 + 4 x180 + 4 x240 + 4 x300 + 4 x360 + 4 x420 + 4 x480
       + 4 x540 + 4 x600 - 5 x660 <= 0
Bounds
 0 <= x1 <= 1
 0 <= x2 <= 1
 0 <= x3 <= 1
 0 <= x4 <= 1
 0 <= x5 <= 1
 0 <= x6 <= 1
 0 <= x7 <= 1
 0 <= x8 <= 1
 0 <= x9 <= 1
 0 <= x10 <= 1
 0 <= x11 <= 1
 0 <= x12 <= 1
 0 <= x13 <= 1
 0 <= x14 <= 1
 0 <= x15 <= 1
 0 <= x16 <= 1
 0 <= x17 <= 1
 0 <= x18 <= 1
 0 <= x19 <= 1
 0 <= x20 <= 1
 0 <= x21 <= 1
 0 <= x22 <= 1
 0 <= x23 <= 1
 0 <= x24 <= 1
 0 <= x25 <= 1
 0 <= x26 <= 1
 0 <= x27 <= 1
 0 <= x28 <= 1
 0 <= x29 <= 1
 0 <= x30 <= 1
 0 <= x31 <= 1
 0 <= x32 <= 1
 0 <= x33 <= 1
 0 <= x34 <= 1
 0 <= x35 <= 1
 0 <= x36 <= 1
 0 <= x37 <= 1
 0 <= x38 <= 1
 0 <= x39 <= 1
 0 <= x40 <= 1
 0 <= x41 <= 1
 0 <= x42 <= 1
 0 <= x43 <= 1
 0 <= x44 <= 1
 0 <= x45 <= 1
 0 <= x46 <= 1
 0 <= x47 <= 1
 0 <= x48 <= 1
 0 <= x49 <= 1
 0 <= x50 <= 1
 0 <= x51 <= 1
 0 <= x52 <= 1
 0 <= x53 <= 1
 0 <= x54 <= 1
 0 <= x55 <= 1
 0 <= x56 <= 1
 0 <= x57 <= 1
 0 <= x58 <= 1
 0 <= x59 <= 1
 0 <= x60 <= 1
 0 <= x61 <= 1
 0 <= x62 <= 1
 0 <= x63 <= 1
 0 <= x64 <= 1
 0 <= x65 <= 1
 0 <= x66 <= 1
 0 <= x67 <= 1
 0 <= x68 <= 1
 0 <= x69 <= 1
 0 <= x70 <= 1
 0 <= x71 <= 1
 0 <= x72 <= 1
 0 <= x73 <= 1
 0 <= x74 <= 1
 0 <= x75 <= 1
 0 <= x76 <= 1
 0 <= x77 <= 1
 0 <= x78 <= 1
 0 <= x79 <= 1
 0 <= x80 <= 1
 0 <= x81 <= 1
 0 <= x82 <= 1
 0 <= x83 <= 1
 0 <= x84 <= 1
 0 <= x85 <= 1
 0 <= x86 <= 1
 0 <= x87 <= 1
 0 <= x88 <= 1
 0 <= x89 <= 1
 0 <= x90 <= 1
 0 <= x91 <= 1
 0 <= x92 <= 1
 0 <= x93 <= 1
 0 <= x94 <= 1
 0 <= x95 <= 1
 0 <= x96 <= 1
 0 <= x97 <= 1
 0 <= x98 <= 1
 0 <= x99 <= 1
 0 <= x100 <= 1
 0 <= x101 <= 1
 0 <= x102 <= 1
 0 <= x103 <= 1
 0 <= x104 <= 1
 0 <= x105 <= 1
 0 <= x106 <= 1
 0 <= x107 <= 1
 0 <= x108 <= 1
 0 <= x109 <= 1
 0 <= x110 <= 1
 0 <= x111 <= 1
 0 <= x112 <= 1
 0 <= x113 <= 1
 0 <= x114 <= 1
 0 <= x115 <= 1
 0 <= x116 <= 1
 0 <= x117 <= 1
 0 <= x118 <= 1
 0 <= x119 <= 1
 0 <= x120 <= 1
 0 <= x121 <= 1
 0 <= x122 <= 1
 0 <= x123 <= 1
 0 <= x124 <= 1
 0 <= x125 <= 1
 0 <= x126 <= 1
 0 <= x127 <= 1
 0 <= x128 <= 1
 0 <= x129 <= 1
 0 <= x130 <= 1
 0 <= x131 <= 1
 0 <= x132 <= 1
 0 <= x133 <= 1
 0 <= x134 <= 1
 0 <= x135 <= 1
 0 <= x136 <= 1
 0 <= x137 <= 1
 0 <= x138 <= 1
 0 <= x139 <= 1
 0 <= x140 <= 1
 0 <= x141 <= 1
 0 <= x142 <= 1
 0 <= x143 <= 1
 0 <= x144 <= 1
 0 <= x145 <= 1
 0 <= x146 <= 1
 0 <= x147 <= 1
 0 <= x148 <= 1
 0 <= x149 <= 1
 0 <= x150 <= 1
 0 <= x151 <= 1
 0 <= x152 <= 1
 0 <= x153 <= 1
 0 <= x154 <= 1
 0 <= x155 <= 1
 0 <= x156 <= 1
 0 <= x157 <= 1
 0 <= x158 <= 1
 0 <= x159 <= 1
 0 <= x160 <= 1
 0 <= x161 <= 1
 0 <= x162 <= 1
 0 <= x163 <= 1
 0 <= x164 <= 1
 0 <= x165 <= 1
 0 <= x166 <= 1
 0 <= x167 <= 1
 0 <= x168 <= 1
 0 <= x169 <= 1
 0 <= x170 <= 1
 0 <= x171 <= 1
 0 <= x172 <= 1
 0 <= x173 <= 1
 0 <= x174 <= 1
 0 <= x175 <= 1
 0 <= x176 <= 1
 0 <= x177 <= 1
 0 <= x178 <= 1
 0 <= x179 <= 1
 0 <= x180 <= 1
 0 <= x181 <= 1
 0 <= x182 <= 1
 0 <= x183 <= 1
 0 <= x184 <= 1
 0 <= x185 <= 1
 0 <= x186 <= 1
 0 <= x187 <= 1
 0 <= x188 <= 1
 0 <= x189 <= 1
 0 <= x190 <= 1
 0 <= x191 <= 1
 0 <= x192 <= 1
 0 <= x193 <= 1
 0 <= x194 <= 1
 0 <= x195 <= 1
 0 <= x196 <= 1
 0 <= x197 <= 1
 0 <= x198 <= 1
 0 <= x199 <= 1
 0 <= x200 <= 1
 0 <= x201 <= 1
 0 <= x202 <= 1
 0 <= x203 <= 1
 0 <= x204 <= 1
 0 <= x205 <= 1
 0 <= x206 <= 1
 0 <= x207 <= 1
 0 <= x208 <= 1
 0 <= x209 <= 1
 0 <= x210 <= 1
 0 <= x211 <= 1
 0 <= x212 <= 1
 0 <= x213 <= 1
 0 <= x214 <= 1
 0 <= x215 <= 1
 0 <= x216 <= 1
 0 <= x217 <= 1
 0 <= x218 <= 1
 0 <= x219 <= 1
 0 <= x220 <= 1
 0 <= x221 <= 1
 0 <= x222 <= 1
 0 <= x223 <= 1
 0 <= x224 <= 1
 0 <= x225 <= 1
 0 <= x226 <= 1
 0 <= x227 <= 1
 0 <= x228 <= 1
 0 <= x229 <= 1
 0 <= x230 <= 1
 0 <= x231 <= 1
 0 <= x232 <= 1
 0 <= x233 <= 1
 0 <= x234 <= 1
 0 <= x235 <= 1
 0 <= x236 <= 1
 0 <= x237 <= 1
 0 <= x238 <= 1
 0 <= x239 <= 1
 0 <= x240 <= 1
 0 <= x241 <= 1
 0 <= x242 <= 1
 0 <= x243 <= 1
 0 <= x244 <= 1
 0 <= x245 <= 1
 0 <= x246 <= 1
 0 <= x247 <= 1
 0 <= x248 <= 1
 0 <= x249 <= 1
 0 <= x250 <= 1
 0 <= x251 <= 1
 0 <= x252 <= 1
 0 <= x253 <= 1
 0 <= x254 <= 1
 0 <= x255 <= 1
 0 <= x256 <= 1
 0 <= x257 <= 1
 0 <= x258 <= 1
 0 <= x259 <= 1
 0 <= x260 <= 1
 0 <= x261 <= 1
 0 <= x262 <= 1
 0 <= x263 <= 1
 0 <= x264 <= 1
 0 <= x265 <= 1
 0 <= x266 <= 1
 0 <= x267 <= 1
 0 <= x268 <= 1
 0 <= x269 <= 1
 0 <= x270 <= 1
 0 <= x271 <= 1
 0 <= x272 <= 1
 0 <= x273 <= 1
 0 <= x274 <= 1
 0 <= x275 <= 1
 0 <= x276 <= 1
 0 <= x277 <= 1
 0 <= x278 <= 1
 0 <= x279 <= 1
 0 <= x280 <= 1
 0 <= x281 <= 1
 0 <= x282 <= 1
 0 <= x283 <= 1
 0 <= x284 <= 1
 0 <= x285 <= 1
 0 <= x286 <= 1
 0 <= x287 <= 1
 0 <= x288 <= 1
 0 <= x289 <= 1
 0 <= x290 <= 1
 0 <= x291 <= 1
 0 <= x292 <= 1
 0 <= x293 <= 1
 0 <= x294 <= 1
 0 <= x295 <= 1
 0 <= x296 <= 1
 0 <= x297 <= 1
 0 <= x298 <= 1
 0 <= x299 <= 1
 0 <= x300 <= 1
 0 <= x301 <= 1
 0 <= x302 <= 1
 0 <= x303 <= 1
 0 <= x304 <= 1
 0 <= x305 <= 1
 0 <= x306 <= 1
 0 <= x307 <= 1
 0 <= x308 <= 1
 0 <= x309 <= 1
 0 <= x310 <= 1
 0 <= x311 <= 1
 0 <= x312 <= 1
 0 <= x313 <= 1
 0 <= x314 <= 1
 0 <= x315 <= 1
 0 <= x316 <= 1
 0 <= x317 <= 1
 0 <= x318 <= 1
 0 <= x319 <= 1
 0 <= x320 <= 1
 0 <= x321 <= 1
 0 <= x322 <= 1
 0 <= x323 <= 1
 0 <= x324 <= 1
 0 <= x325 <= 1
 0 <= x326 <= 1
 0 <= x327 <= 1
 0 <= x328 <= 1
 0 <= x329 <= 1
 0 <= x330 <= 1
 0 <= x331 <= 1
 0 <= x332 <= 1
 0 <= x333 <= 1
 0 <= x334 <= 1
 0 <= x335 <= 1
 0 <= x336 <= 1
 0 <= x337 <= 1
 0 <= x338 <= 1
 0 <= x339 <= 1
 0 <= x340 <= 1
 0 <= x341 <= 1
 0 <= x342 <= 1
 0 <= x343 <= 1
 0 <= x344 <= 1
 0 <= x345 <= 1
 0 <= x346 <= 1
 0 <= x347 <= 1
 0 <= x348 <= 1
 0 <= x349 <= 1
 0 <= x350 <= 1
 0 <= x351 <= 1
 0 <= x352 <= 1
 0 <= x353 <= 1
 0 <= x354 <= 1
 0 <= x355 <= 1
 0 <= x356 <= 1
 0 <= x357 <= 1
 0 <= x358 <= 1
 0 <= x359 <= 1
 0 <= x360 <= 1
 0 <= x361 <= 1
 0 <= x362 <= 1
 0 <= x363 <= 1
 0 <= x364 <= 1
 0 <= x365 <= 1
 0 <= x366 <= 1
 0 <= x367 <= 1
 0 <= x368 <= 1
 0 <= x369 <= 1
 0 <= x370 <= 1
 0 <= x371 <= 1
 0 <= x372 <= 1
 0 <= x373 <= 1
 0 <= x374 <= 1
 0 <= x375 <= 1
 0 <= x376 <= 1
 0 <= x377 <= 1
 0 <= x378 <= 1
 0 <= x379 <= 1
 0 <= x380 <= 1
 0 <= x381 <= 1
 0 <= x382 <= 1
 0 <= x383 <= 1
 0 <= x384 <= 1
 0 <= x385 <= 1
 0 <= x386 <= 1
 0 <= x387 <= 1
 0 <= x388 <= 1
 0 <= x389 <= 1
 0 <= x390 <= 1
 0 <= x391 <= 1
 0 <= x392 <= 1
 0 <= x393 <= 1
 0 <= x394 <= 1
 0 <= x395 <= 1
 0 <= x396 <= 1
 0 <= x397 <= 1
 0 <= x398 <= 1
 0 <= x399 <= 1
 0 <= x400 <= 1
 0 <= x401 <= 1
 0 <= x402 <= 1
 0 <= x403 <= 1
 0 <= x404 <= 1
 0 <= x405 <= 1
 0 <= x406 <= 1
 0 <= x407 <= 1
 0 <= x408 <= 1
 0 <= x409 <= 1
 0 <= x410 <= 1
 0 <= x411 <= 1
 0 <= x412 <= 1
 0 <= x413 <= 1
 0 <= x414 <= 1
 0 <= x415 <= 1
 0 <= x416 <= 1
 0 <= x417 <= 1
 0 <= x418 <= 1
 0 <= x419 <= 1
 0 <= x420 <= 1
 0 <= x421 <= 1
 0 <= x422 <= 1
 0 <= x423 <= 1
 0 <= x424 <= 1
 0 <= x425 <= 1
 0 <= x426 <= 1
 0 <= x427 <= 1
 0 <= x428 <= 1
 0 <= x429 <= 1
 0 <= x430 <= 1
 0 <= x431 <= 1
 0 <= x432 <= 1
 0 <= x433 <= 1
 0 <= x434 <= 1
 0 <= x435 <= 1
 0 <= x436 <= 1
 0 <= x437 <= 1
 0 <= x438 <= 1
 0 <= x439 <= 1
 0 <= x440 <= 1
 0 <= x441 <= 1
 0 <= x442 <= 1
 0 <= x443 <= 1
 0 <= x444 <= 1
 0 <= x445 <= 1
 0 <= x446 <= 1
 0 <= x447 <= 1
 0 <= x448 <= 1
 0 <= x449 <= 1
 0 <= x450 <= 1
 0 <= x451 <= 1
 0 <= x452 <= 1
 0 <= x453 <= 1
 0 <= x454 <= 1
 0 <= x455 <= 1
 0 <= x456 <= 1
 0 <= x457 <= 1
 0 <= x458 <= 1
 0 <= x459 <= 1
 0 <= x460 <= 1
 0 <= x461 <= 1
 0 <= x462 <= 1
 0 <= x463 <= 1
 0 <= x464 <= 1
 0 <= x465 <= 1
 0 <= x466 <= 1
 0 <= x467 <= 1
 0 <= x468 <= 1
 0 <= x469 <= 1
 0 <= x470 <= 1
 0 <= x471 <= 1
 0 <= x472 <= 1
 0 <= x473 <= 1
 0 <= x474 <= 1
 0 <= x475 <= 1
 0 <= x476 <= 1
 0 <= x477 <= 1
 0 <= x478 <= 1
 0 <= x479 <= 1
 0 <= x480 <= 1
 0 <= x481 <= 1
 0 <= x482 <= 1
 0 <= x483 <= 1
 0 <= x484 <= 1
 0 <= x485 <= 1
 0 <= x486 <= 1
 0 <= x487 <= 1
 0 <= x488 <= 1
 0 <= x489 <= 1
 0 <= x490 <= 1
 0 <= x491 <= 1
 0 <= x492 <= 1
 0 <= x493 <= 1
 0 <= x494 <= 1
 0 <= x495 <= 1
 0 <= x496 <= 1
 0 <= x497 <= 1
 0 <= x498 <= 1
 0 <= x499 <= 1
 0 <= x500 <= 1
 0 <= x501 <= 1
 0 <= x502 <= 1
 0 <= x503 <= 1
 0 <= x504 <= 1
 0 <= x505 <= 1
 0 <= x506 <= 1
 0 <= x507 <= 1
 0 <= x508 <= 1
 0 <= x509 <= 1
 0 <= x510 <= 1
 0 <= x511 <= 1
 0 <= x512 <= 1
 0 <= x513 <= 1
 0 <= x514 <= 1
 0 <= x515 <= 1
 0 <= x516 <= 1
 0 <= x517 <= 1
 0 <= x518 <= 1
 0 <= x519 <= 1
 0 <= x520 <= 1
 0 <= x521 <= 1
 0 <= x522 <= 1
 0 <= x523 <= 1
 0 <= x524 <= 1
 0 <= x525 <= 1
 0 <= x526 <= 1
 0 <= x527 <= 1
 0 <= x528 <= 1
 0 <= x529 <= 1
 0 <= x530 <= 1
 0 <= x531 <= 1
 0 <= x532 <= 1
 0 <= x533 <= 1
 0 <= x534 <= 1
 0 <= x535 <= 1
 0 <= x536 <= 1
 0 <= x537 <= 1
 0 <= x538 <= 1
 0 <= x539 <= 1
 0 <= x540 <= 1
 0 <= x541 <= 1
 0 <= x542 <= 1
 0 <= x543 <= 1
 0 <= x544 <= 1
 0 <= x545 <= 1
 0 <= x546 <= 1
 0 <= x547 <= 1
 0 <= x548 <= 1
 0 <= x549 <= 1
 0 <= x550 <= 1
 0 <= x551 <= 1
 0 <= x552 <= 1
 0 <= x553 <= 1
 0 <= x554 <= 1
 0 <= x555 <= 1
 0 <= x556 <= 1
 0 <= x557 <= 1
 0 <= x558 <= 1
 0 <= x559 <= 1
 0 <= x560 <= 1
 0 <= x561 <= 1
 0 <= x562 <= 1
 0 <= x563 <= 1
 0 <= x564 <= 1
 0 <= x565 <= 1
 0 <= x566 <= 1
 0 <= x567 <= 1
 0 <= x568 <= 1
 0 <= x569 <= 1
 0 <= x570 <= 1
 0 <= x571 <= 1
 0 <= x572 <= 1
 0 <= x573 <= 1
 0 <= x574 <= 1
 0 <= x575 <= 1
 0 <= x576 <= 1
 0 <= x577 <= 1
 0 <= x578 <= 1
 0 <= x579 <= 1
 0 <= x580 <= 1
 0 <= x581 <= 1
 0 <= x582 <= 1
 0 <= x583 <= 1
 0 <= x584 <= 1
 0 <= x585 <= 1
 0 <= x586 <= 1
 0 <= x587 <= 1
 0 <= x588 <= 1
 0 <= x589 <= 1
 0 <= x590 <= 1
 0 <= x591 <= 1
 0 <= x592 <= 1
 0 <= x593 <= 1
 0 <= x594 <= 1
 0 <= x595 <= 1
 0 <= x596 <= 1
 0 <= x597 <= 1
 0 <= x598 <= 1
 0 <= x599 <= 1
 0 <= x600 <= 1
 0 <= x601 <= 1
 0 <= x602 <= 1
 0 <= x603 <= 1
 0 <= x604 <= 1
 0 <= x605 <= 1
 0 <= x606 <= 1
 0 <= x607 <= 1
 0 <= x608 <= 1
 0 <= x609 <= 1
 0 <= x610 <= 1
 0 <= x611 <= 1
 0 <= x612 <= 1
 0 <= x613 <= 1
 0 <= x614 <= 1
 0 <= x615 <= 1
 0 <= x616 <= 1
 0 <= x617 <= 1
 0 <= x618 <= 1
 0 <= x619 <= 1
 0 <= x620 <= 1
 0 <= x621 <= 1
 0 <= x622 <= 1
 0 <= x623 <= 1
 0 <= x624 <= 1
 0 <= x625 <= 1
 0 <= x626 <= 1
 0 <= x627 <= 1
 0 <= x628 <= 1
 0 <= x629 <= 1
 0 <= x630 <= 1
 0 <= x631 <= 1
 0 <= x632 <= 1
 0 <= x633 <= 1
 0 <= x634 <= 1
 0 <= x635 <= 1
 0 <= x636 <= 1
 0 <= x637 <= 1
 0 <= x638 <= 1
 0 <= x639 <= 1
 0 <= x640 <= 1
 0 <= x641 <= 1
 0 <= x642 <= 1
 0 <= x643 <= 1
 0 <= x644 <= 1
 0 <= x645 <= 1
 0 <= x646 <= 1
 0 <= x647 <= 1
 0 <= x648 <= 1
 0 <= x649 <= 1
 0 <= x650 <= 1
 0 <= x651 <= 1
 0 <= x652 <= 1
 0 <= x653 <= 1
 0 <= x654 <= 1
 0 <= x655 <= 1
 0 <= x656 <= 1
 0 <= x657 <= 1
 0 <= x658 <= 1
 0 <= x659 <= 1
 0 <= x660 <= 1
Binaries
 x601  x602  x603  x604  x605  x606  x607  x608  x609  x610  x611  x612  x613 
 x614  x615  x616  x617  x618  x619  x620  x621  x622  x623  x624  x625  x626 
 x627  x628  x629  x630  x631  x632  x633  x634  x635  x636  x637  x638  x639 
 x640  x641  x642  x643  x644  x645  x646  x647  x648  x649  x650  x651  x652 
 x653  x654  x655  x656  x657  x658  x659  x660 
End
